(set-info :smt-lib-version 2.6)
(set-logic QF_BV)
(set-info :source |
 Patrice Godefroid, SAGE (systematic dynamic test generation)
 For more information: http://research.microsoft.com/en-us/um/people/pg/public_psfiles/ndss2008.pdf
|)
(set-info :category "industrial")
(set-info :status sat)
(declare-fun T1_3341 () (_ BitVec 8))
(declare-fun T2_3155 () (_ BitVec 16))
(declare-fun T1_3146 () (_ BitVec 8))
(declare-fun T2_2754 () (_ BitVec 16))
(declare-fun T1_2745 () (_ BitVec 8))
(declare-fun T2_3343 () (_ BitVec 16))
(declare-fun T1_3345 () (_ BitVec 8))
(declare-fun T1_3358 () (_ BitVec 8))
(declare-fun T1_3371 () (_ BitVec 8))
(declare-fun T1_3405 () (_ BitVec 8))
(declare-fun T1_3443 () (_ BitVec 8))
(declare-fun T1_3343 () (_ BitVec 8))
(declare-fun T1_3344 () (_ BitVec 8))
(declare-fun T1_3155 () (_ BitVec 8))
(declare-fun T1_3156 () (_ BitVec 8))
(declare-fun T1_2754 () (_ BitVec 8))
(declare-fun T1_2755 () (_ BitVec 8))
(assert (let ((?v_18 ((_ zero_extend 24) T1_3341)) (?v_4 ((_ zero_extend 24) T1_3146)) (?v_1 ((_ zero_extend 24) T1_2745))) (let ((?v_0 (bvadd ?v_1 (_ bv1 32)))) (let ((?v_2 (bvadd (bvadd ?v_0 (_ bv4269308 32)) ((_ zero_extend 16) T2_2754)))) (let ((?v_5 (bvadd ?v_2 (_ bv6 32)))) (let ((?v_16 (bvadd (bvadd ?v_5 (bvadd ?v_4 (_ bv1 32))) (_ bv2 32)))) (let ((?v_15 (bvadd ?v_16 ((_ zero_extend 16) T2_3155)))) (let ((?v_19 (bvadd ?v_15 (_ bv6 32)))) (let ((?v_22 (bvadd ?v_19 (bvadd ?v_18 (_ bv1 32))))) (let ((?v_3 (bvadd ?v_22 (_ bv2 32))) (?v_7 ((_ zero_extend 16) T2_3343)) (?v_8 ((_ zero_extend 24) T1_3345))) (let ((?v_24 (bvadd ?v_3 ?v_7)) (?v_23 (bvadd ?v_7 (bvsub (_ bv4294967295 32) ?v_8))) (?v_9 ((_ zero_extend 24) T1_3358)) (?v_21 (bvadd ?v_3 ?v_8))) (let ((?v_20 (bvadd ?v_23 (bvsub (_ bv4294967295 32) ?v_9))) (?v_10 ((_ zero_extend 24) T1_3371))) (let ((?v_17 (bvadd ?v_20 (bvsub (_ bv4294967295 32) ?v_10))) (?v_11 ((_ zero_extend 24) T1_3405)) (?v_14 (bvadd (bvadd ?v_21 (_ bv1 32)) ?v_9))) (let ((?v_13 (bvadd ?v_17 (bvsub (_ bv4294967295 32) ?v_11))) (?v_12 ((_ zero_extend 24) T1_3443)) (?v_6 (bvadd (bvadd ?v_14 (_ bv1 32)) ?v_10))) (and true (= T2_2754 (bvor (bvshl ((_ zero_extend 8) T1_2755) (_ bv8 16)) ((_ zero_extend 8) T1_2754))) (= T2_3155 (bvor (bvshl ((_ zero_extend 8) T1_3156) (_ bv8 16)) ((_ zero_extend 8) T1_3155))) (= T2_3343 (bvor (bvshl ((_ zero_extend 8) T1_3344) (_ bv8 16)) ((_ zero_extend 8) T1_3343))) (bvult (_ bv4270134 32) (bvadd (bvadd ?v_24 (_ bv6 32)) (_ bv1 32))) (bvule (bvadd (bvadd ?v_0 (_ bv4269306 32)) (_ bv2 32)) (_ bv4270134 32)) (not (= ?v_1 (_ bv1 32))) (bvule (bvsub ?v_2 (_ bv4269288 32)) (_ bv846 32)) (bvule (bvadd (bvadd (bvadd ?v_6 (_ bv1 32)) ?v_11) (_ bv2 32)) (_ bv4270134 32)) (not (= ?v_4 (_ bv1 32))) (bvule (bvadd ?v_5 (_ bv1 32)) (_ bv4270134 32)) (bvule (bvadd ?v_6 (_ bv2 32)) (_ bv4270134 32)) (= (bvadd ?v_13 (bvsub (_ bv4294967295 32) ?v_12)) (_ bv0 32)) (bvule (bvadd ?v_12 (_ bv1 32)) ?v_13) (not (= ?v_13 (_ bv0 32))) (bvule (bvadd ?v_14 (_ bv2 32)) (_ bv4270134 32)) (bvule (bvsub ?v_15 (_ bv4269288 32)) (_ bv846 32)) (bvule ?v_16 (_ bv4270134 32)) (bvule (bvadd ?v_11 (_ bv1 32)) ?v_17) (not (= ?v_17 (_ bv0 32))) (not (= ?v_18 (_ bv0 32))) (= ?v_18 (_ bv1 32)) (bvule (bvadd ?v_19 (_ bv1 32)) (_ bv4270134 32)) (bvule (bvadd ?v_10 (_ bv1 32)) ?v_20) (not (= ?v_20 (_ bv0 32))) (bvule (bvadd ?v_21 (_ bv2 32)) (_ bv4270134 32)) (bvule (bvadd ?v_22 (_ bv3 32)) (_ bv4270134 32)) (bvule (bvadd ?v_9 (_ bv1 32)) ?v_23) (not (= ?v_23 (_ bv0 32))) (bvule (bvsub ?v_24 (_ bv4269288 32)) (_ bv846 32)) (bvule (bvadd ?v_8 (_ bv1 32)) ?v_7) (not (= ?v_7 (_ bv0 32))) (bvule ?v_3 (_ bv4270134 32)))))))))))))))))
(check-sat)
(exit)
